Maximize
 obj: 229935 x0 + 307009 x1 + 25009 x2 + 445886 x3 + 648008 x4 + 95691 x5 + 91924 x6 + 143180 x7 + 207367 x8 + 114662 x9 + 147926 x10 + 64629 x11 + 102025 x12 + 188217 x13 + 242194 x14 + 22971 x15 + 27544 x16 + 47770 x17 + 64548 x18 + 354903 x19 + 521381 x20 + 634557 x21 + 720636 x22 + 58267 x23 + 90786 x24 + 117055 x25 + 66596 x26 + 143160 x27 + 255739 x28 + 276796 x29 + 105775 x30 + 271318 x31 + 329892 x32 + 253192 x33 + 290873 x34 + 98528 x35 + 72147 x36 + 11794 x37 + 268873 x38 + 377626 x39 + 181466 x40 + 211204 x41 + 32185 x42 + 40158 x43 + 214816 x44 + 257123 x45 + 284714 x46 + 293968 x47 + 53609 x48 + 56649 x49 + 148233 x50 + 385466 x51 + 432280 x52 + 202393 x53 + 217335 x54 + 60034 x55 + 231687 x56 + 274007 x57 + 98532 x58 + 143178 x59 + 69940 x60 + 99090 x61 + 24859 x62 + 71853 x63 
Subject To
 c1:  x3 +  x25 +  x36 +  x38  <= 1
 c2:  x1 +  x3 +  x19  <= 1
 c3:  x45 +  x57  <= 1
 c4:  x18 +  x20 +  x35 +  x40  <= 1
 c5:  x33 +  x34  <= 1
 c6:  x57  <= 1
 c7:  x4 +  x21 +  x22 +  x33 +  x41  <= 1
 c8:  x3 +  x4  <= 1
 c9:  x1 +  x35 +  x36 +  x44 +  x45  <= 1
 c10:  x20  <= 1
 c11:  x19 +  x20 +  x21 +  x31 +  x32 +  x49 +  x51  <= 1
 c12:  x0  <= 1
 c13:  x43  <= 1
 c14:  x39  <= 1
 c15:  x4 +  x21 +  x60  <= 1
 c16:  x1  <= 1
 c17:  x50 +  x56  <= 1
 c18:  x34 +  x51 +  x52  <= 1
 c19:  x3 +  x4 +  x44 +  x53 +  x56  <= 1
 c20:  x19 +  x20  <= 1
 c21:  x21 +  x22  <= 1
 c22:  x3 +  x4  <= 1
 c23:  x7 +  x8  <= 1
 c24:  x0  <= 1
 c25:  x0 +  x1  <= 1
 c26:  x15 +  x16  <= 1
 c27:  x17 +  x18  <= 1
 c28:  x9 +  x10  <= 1
 c29:  x13 +  x14  <= 1
 c30:  x19 +  x20 +  x52 +  x58  <= 1
 c31:  x12 +  x19 +  x32 +  x47  <= 1
 c32:  x60 +  x61  <= 1
 c33:  x56 +  x57  <= 1
 c34:  x58 +  x59  <= 1
 c35:  x22 +  x30 +  x52  <= 1
 c36:  x24  <= 1
 c37:  x13  <= 1
 c38:  x3  <= 1
 c39:  x5 +  x30  <= 1
 c40:  x60 +  x61  <= 1
 c41:  x8 +  x20 +  x21 +  x22 +  x31 +  x62  <= 1
 c42:  x9 +  x10 +  x22  <= 1
 c43:  x2 +  x22 +  x29 +  x52  <= 1
 c44:  x59  <= 1
 c45:  x20  <= 1
 c46:  x3 +  x9 +  x57  <= 1
 c47:  x56  <= 1
 c48:  x51 +  x59  <= 1
 c49:  x4 +  x57  <= 1
 c50:  x7 +  x20 +  x21 +  x54  <= 1
 c51:  x25 +  x30 +  x52 +  x56 +  x57 +  x61  <= 1
 c52:  x6 +  x16 +  x22  <= 1
 c53:  x46 +  x47  <= 1
 c54:  x53 +  x54  <= 1
 c55:  x53 +  x54  <= 1
 c56:  x51 +  x52  <= 1
 c57:  x31 +  x32  <= 1
 c58:  x28 +  x29  <= 1
 c59:  x35 +  x36  <= 1
 c60:  x33 +  x34  <= 1
 c61:  x40 +  x41  <= 1
 c62:  x38 +  x39  <= 1
 c63:  x46 +  x47  <= 1
 c64:  x44 +  x45  <= 1
 c65:  x34  <= 1
 c66:  x19 +  x22  <= 1
 c67:  x30  <= 1
 c68:  x4 +  x15 +  x30  <= 1
 c69:  x17 +  x18  <= 1
 c70:  x17 +  x31 +  x51 +  x57 +  x58 +  x59  <= 1
 c71:  x28 +  x51  <= 1
 c72:  x27  <= 1
 c73:  x14 +  x20  <= 1
 c74:  x3 +  x4 +  x11 +  x21 +  x40 +  x41  <= 1
 c75:  x0 +  x1 +  x55  <= 1
 c76:  x28  <= 1
 c77:  x25 +  x29 +  x33 +  x38 +  x39  <= 1
 c78:  x40  <= 1
 c79:  x0 +  x48  <= 1
 c80:  x7 +  x8 +  x21 +  x32  <= 1
 c81:  x13 +  x14  <= 1
 c82:  x41  <= 1
 c83:  x19  <= 1
 c84:  x19 +  x21 +  x26  <= 1
 c85:  x38 +  x39 +  x63  <= 1
 c86:  x46  <= 1
 c87:  x20 +  x23 +  x56  <= 1
 c88:  x19 +  x22 +  x28 +  x29 +  x42 +  x56  <= 1
 c89:  x15 +  x16 +  x37 +  x58  <= 1
 c90:  x10 +  x19  <= 1
Bounds
 0 <= x0 <= 1
 0 <= x1 <= 1
 0 <= x2 <= 1
 0 <= x3 <= 1
 0 <= x4 <= 1
 0 <= x5 <= 1
 0 <= x6 <= 1
 0 <= x7 <= 1
 0 <= x8 <= 1
 0 <= x9 <= 1
 0 <= x10 <= 1
 0 <= x11 <= 1
 0 <= x12 <= 1
 0 <= x13 <= 1
 0 <= x14 <= 1
 0 <= x15 <= 1
 0 <= x16 <= 1
 0 <= x17 <= 1
 0 <= x18 <= 1
 0 <= x19 <= 1
 0 <= x20 <= 1
 0 <= x21 <= 1
 0 <= x22 <= 1
 0 <= x23 <= 1
 0 <= x24 <= 1
 0 <= x25 <= 1
 0 <= x26 <= 1
 0 <= x27 <= 1
 0 <= x28 <= 1
 0 <= x29 <= 1
 0 <= x30 <= 1
 0 <= x31 <= 1
 0 <= x32 <= 1
 0 <= x33 <= 1
 0 <= x34 <= 1
 0 <= x35 <= 1
 0 <= x36 <= 1
 0 <= x37 <= 1
 0 <= x38 <= 1
 0 <= x39 <= 1
 0 <= x40 <= 1
 0 <= x41 <= 1
 0 <= x42 <= 1
 0 <= x43 <= 1
 0 <= x44 <= 1
 0 <= x45 <= 1
 0 <= x46 <= 1
 0 <= x47 <= 1
 0 <= x48 <= 1
 0 <= x49 <= 1
 0 <= x50 <= 1
 0 <= x51 <= 1
 0 <= x52 <= 1
 0 <= x53 <= 1
 0 <= x54 <= 1
 0 <= x55 <= 1
 0 <= x56 <= 1
 0 <= x57 <= 1
 0 <= x58 <= 1
 0 <= x59 <= 1
 0 <= x60 <= 1
 0 <= x61 <= 1
 0 <= x62 <= 1
 0 <= x63 <= 1
End